* SDPA sparse format data
* File name = st_e09.dat-s
* mDim =  25, nBlock =  7
* size of bVect = 1 *  25
* size of sparseMatrix =  264 * 5
 25
  7
-12  8  6  6  6  6  6 
   0.0000000000    0.0000000000    0.0000000000   -1.0000000000    0.0000000000    0.0000000000    0.0000000000    0.0000000000    0.0000000000    0.0000000000    0.0000000000    0.0000000000    0.0000000000    0.0000000000    0.0000000000    0.0000000000    0.0000000000    0.0000000000    0.0000000000    0.0000000000    0.0000000000    0.0000000000    0.0000000000    0.0000000000    0.0000000000 
  4   1   1   1    1.0000000000
 11   1   2   2    1.0000000000
 13   1   3   3    1.0000000000
 21   1   4   4    1.0000000000
 23   1   5   5    1.0000000000
 25   1   6   6    1.0000000000
 10   1   7   7   -1.0000000000
  0   1   7   7   -1.0000000000
 14   1   8   8   -1.0000000000
  0   1   8   8   -1.0000000000
 21   1   9   9   -1.0000000000
  0   1   9   9   -1.0000000000
 22   1  10  10   -1.0000000000
  0   1  10  10   -1.0000000000
 24   1  11  11   -1.0000000000
  0   1  11  11   -1.0000000000
 25   1  12  12   -1.0000000000
  0   1  12  12   -1.0000000000
  0   2   1   1   -1.0000000000
  1   2   1   2    1.0000000000
  2   2   1   3    1.0000000000
  3   2   1   4    1.0000000000
  4   2   1   5    1.0000000000
  5   2   1   6    1.0000000000
  7   2   1   7    1.0000000000
  8   2   1   8    1.0000000000
  3   2   2   2    1.0000000000
  4   2   2   3    1.0000000000
  6   2   2   4    1.0000000000
  7   2   2   5    1.0000000000
  8   2   2   6    1.0000000000
 11   2   2   7    1.0000000000
 12   2   2   8    1.0000000000
  5   2   3   3    1.0000000000
  7   2   3   4    1.0000000000
  8   2   3   5    1.0000000000
  9   2   3   6    1.0000000000
 12   2   3   7    1.0000000000
 13   2   3   8    1.0000000000
 10   2   4   4    1.0000000000
 11   2   4   5    1.0000000000
 12   2   4   6    1.0000000000
 16   2   4   7    1.0000000000
 17   2   4   8    1.0000000000
 12   2   5   5    1.0000000000
 13   2   5   6    1.0000000000
 17   2   5   7    1.0000000000
 18   2   5   8    1.0000000000
 14   2   6   6    1.0000000000
 18   2   6   7    1.0000000000
 19   2   6   8    1.0000000000
 22   2   7   7    1.0000000000
 23   2   7   8    1.0000000000
 24   2   8   8    1.0000000000
  0   3   1   1   -0.7500000000
  4   3   1   1   -1.0000000000
  1   3   1   1   -0.5000000000
  2   3   1   1   -0.5000000000
  1   3   1   2    0.7500000000
  7   3   1   2   -1.0000000000
  3   3   1   2   -0.5000000000
  4   3   1   2   -0.5000000000
  2   3   1   3    0.7500000000
  8   3   1   3   -1.0000000000
  4   3   1   3   -0.5000000000
  5   3   1   3   -0.5000000000
  3   3   1   4    0.7500000000
 11   3   1   4   -1.0000000000
  6   3   1   4   -0.5000000000
  7   3   1   4   -0.5000000000
  4   3   1   5    0.7500000000
 12   3   1   5   -1.0000000000
  7   3   1   5   -0.5000000000
  8   3   1   5   -0.5000000000
  5   3   1   6    0.7500000000
 13   3   1   6   -1.0000000000
  8   3   1   6   -0.5000000000
  9   3   1   6   -0.5000000000
  3   3   2   2    0.7500000000
 11   3   2   2   -1.0000000000
  6   3   2   2   -0.5000000000
  7   3   2   2   -0.5000000000
  4   3   2   3    0.7500000000
 12   3   2   3   -1.0000000000
  7   3   2   3   -0.5000000000
  8   3   2   3   -0.5000000000
  6   3   2   4    0.7500000000
 16   3   2   4   -1.0000000000
 10   3   2   4   -0.5000000000
 11   3   2   4   -0.5000000000
  7   3   2   5    0.7500000000
 17   3   2   5   -1.0000000000
 11   3   2   5   -0.5000000000
 12   3   2   5   -0.5000000000
  8   3   2   6    0.7500000000
 18   3   2   6   -1.0000000000
 12   3   2   6   -0.5000000000
 13   3   2   6   -0.5000000000
  5   3   3   3    0.7500000000
 13   3   3   3   -1.0000000000
  8   3   3   3   -0.5000000000
  9   3   3   3   -0.5000000000
  7   3   3   4    0.7500000000
 17   3   3   4   -1.0000000000
 11   3   3   4   -0.5000000000
 12   3   3   4   -0.5000000000
  8   3   3   5    0.7500000000
 18   3   3   5   -1.0000000000
 12   3   3   5   -0.5000000000
 13   3   3   5   -0.5000000000
  9   3   3   6    0.7500000000
 19   3   3   6   -1.0000000000
 13   3   3   6   -0.5000000000
 14   3   3   6   -0.5000000000
 10   3   4   4    0.7500000000
 21   3   4   4   -1.0000000000
 15   3   4   4   -0.5000000000
 16   3   4   4   -0.5000000000
 11   3   4   5    0.7500000000
 22   3   4   5   -1.0000000000
 16   3   4   5   -0.5000000000
 17   3   4   5   -0.5000000000
 12   3   4   6    0.7500000000
 23   3   4   6   -1.0000000000
 17   3   4   6   -0.5000000000
 18   3   4   6   -0.5000000000
 12   3   5   5    0.7500000000
 23   3   5   5   -1.0000000000
 17   3   5   5   -0.5000000000
 18   3   5   5   -0.5000000000
 13   3   5   6    0.7500000000
 24   3   5   6   -1.0000000000
 18   3   5   6   -0.5000000000
 19   3   5   6   -0.5000000000
 14   3   6   6    0.7500000000
 25   3   6   6   -1.0000000000
 19   3   6   6   -0.5000000000
 20   3   6   6   -0.5000000000
  1   4   1   1    1.0000000000
  3   4   1   2    1.0000000000
  4   4   1   3    1.0000000000
  6   4   1   4    1.0000000000
  7   4   1   5    1.0000000000
  8   4   1   6    1.0000000000
  6   4   2   2    1.0000000000
  7   4   2   3    1.0000000000
 10   4   2   4    1.0000000000
 11   4   2   5    1.0000000000
 12   4   2   6    1.0000000000
  8   4   3   3    1.0000000000
 11   4   3   4    1.0000000000
 12   4   3   5    1.0000000000
 13   4   3   6    1.0000000000
 15   4   4   4    1.0000000000
 16   4   4   5    1.0000000000
 17   4   4   6    1.0000000000
 17   4   5   5    1.0000000000
 18   4   5   6    1.0000000000
 19   4   6   6    1.0000000000
  2   5   1   1    1.0000000000
  4   5   1   2    1.0000000000
  5   5   1   3    1.0000000000
  7   5   1   4    1.0000000000
  8   5   1   5    1.0000000000
  9   5   1   6    1.0000000000
  7   5   2   2    1.0000000000
  8   5   2   3    1.0000000000
 11   5   2   4    1.0000000000
 12   5   2   5    1.0000000000
 13   5   2   6    1.0000000000
  9   5   3   3    1.0000000000
 12   5   3   4    1.0000000000
 13   5   3   5    1.0000000000
 14   5   3   6    1.0000000000
 16   5   4   4    1.0000000000
 17   5   4   5    1.0000000000
 18   5   4   6    1.0000000000
 18   5   5   5    1.0000000000
 19   5   5   6    1.0000000000
 20   5   6   6    1.0000000000
  0   6   1   1   -1.0000000000
  1   6   1   1   -1.0000000000
  1   6   1   2    1.0000000000
  3   6   1   2   -1.0000000000
  2   6   1   3    1.0000000000
  4   6   1   3   -1.0000000000
  3   6   1   4    1.0000000000
  6   6   1   4   -1.0000000000
  4   6   1   5    1.0000000000
  7   6   1   5   -1.0000000000
  5   6   1   6    1.0000000000
  8   6   1   6   -1.0000000000
  3   6   2   2    1.0000000000
  6   6   2   2   -1.0000000000
  4   6   2   3    1.0000000000
  7   6   2   3   -1.0000000000
  6   6   2   4    1.0000000000
 10   6   2   4   -1.0000000000
  7   6   2   5    1.0000000000
 11   6   2   5   -1.0000000000
  8   6   2   6    1.0000000000
 12   6   2   6   -1.0000000000
  5   6   3   3    1.0000000000
  8   6   3   3   -1.0000000000
  7   6   3   4    1.0000000000
 11   6   3   4   -1.0000000000
  8   6   3   5    1.0000000000
 12   6   3   5   -1.0000000000
  9   6   3   6    1.0000000000
 13   6   3   6   -1.0000000000
 10   6   4   4    1.0000000000
 15   6   4   4   -1.0000000000
 11   6   4   5    1.0000000000
 16   6   4   5   -1.0000000000
 12   6   4   6    1.0000000000
 17   6   4   6   -1.0000000000
 12   6   5   5    1.0000000000
 17   6   5   5   -1.0000000000
 13   6   5   6    1.0000000000
 18   6   5   6   -1.0000000000
 14   6   6   6    1.0000000000
 19   6   6   6   -1.0000000000
  0   7   1   1   -1.0000000000
  2   7   1   1   -1.0000000000
  1   7   1   2    1.0000000000
  4   7   1   2   -1.0000000000
  2   7   1   3    1.0000000000
  5   7   1   3   -1.0000000000
  3   7   1   4    1.0000000000
  7   7   1   4   -1.0000000000
  4   7   1   5    1.0000000000
  8   7   1   5   -1.0000000000
  5   7   1   6    1.0000000000
  9   7   1   6   -1.0000000000
  3   7   2   2    1.0000000000
  7   7   2   2   -1.0000000000
  4   7   2   3    1.0000000000
  8   7   2   3   -1.0000000000
  6   7   2   4    1.0000000000
 11   7   2   4   -1.0000000000
  7   7   2   5    1.0000000000
 12   7   2   5   -1.0000000000
  8   7   2   6    1.0000000000
 13   7   2   6   -1.0000000000
  5   7   3   3    1.0000000000
  9   7   3   3   -1.0000000000
  7   7   3   4    1.0000000000
 12   7   3   4   -1.0000000000
  8   7   3   5    1.0000000000
 13   7   3   5   -1.0000000000
  9   7   3   6    1.0000000000
 14   7   3   6   -1.0000000000
 10   7   4   4    1.0000000000
 16   7   4   4   -1.0000000000
 11   7   4   5    1.0000000000
 17   7   4   5   -1.0000000000
 12   7   4   6    1.0000000000
 18   7   4   6   -1.0000000000
 12   7   5   5    1.0000000000
 18   7   5   5   -1.0000000000
 13   7   5   6    1.0000000000
 19   7   5   6   -1.0000000000
 14   7   6   6    1.0000000000
 20   7   6   6   -1.0000000000
